p tw 25 40
3 4
12 13
21 22
5 13
22 23
12 22
8 9
8 18
17 18
9 17
11 23
13 14
10 24
6 20
18 19
7 19
4 5
5 6
4 14
3 15
14 15
23 24
9 10
5 21
1 2
10 11
19 20
2 16
9 25
1 17
6 7
15 16
24 25
20 21
2 3
11 12
7 8
13 21
1 25
16 17
